5 5 2 10
19 7 18 19 12 
2.35 4.36 1.29 2.75 7.01 
3.44 1.84 7.62 1.19 7.46 
4 4 4 4 4 
1.42 1.55 1 3.43 7.31 
1.06 4.42 0.27 1.19 3.99 
1 1 1 1 1 
1 1 1 1 1 
1 1 1 1 1 
0.08 0.02 0.32 0.68 0.11 
0.09 0.03 0.73 0.97 0.31 
0.01 0.01 0.01 0.01 0.01 
0.02 0.02 0.02 0.02 0.02 
0.03 0.03 0.03 0.03 0.03 
0.5 0.5 0.5 0.5 0.5 
1 1 1 1 1 
